p cnf 12 50 
6 -9 11 0
-6 3 -8 0
2 7 -8 0
1 -6 7 0
11 -3 10 0
-8 12 6 0
8 10 -4 0
-11 -1 7 0
-10 12 6 0
6 -5 3 0
3 -12 5 0
10 4 -1 0
-5 -2 1 0
-12 -8 -7 0
12 -8 1 0
-12 -11 10 0
-10 -4 -9 0
-12 -6 8 0
10 -9 1 0
-6 5 9 0
-1 12 4 0
12 -10 7 0
-8 10 12 0
-11 7 9 0
2 3 9 0
5 11 3 0
8 4 -7 0
4 10 -6 0
9 1 6 0
5 8 -2 0
1 9 4 0
4 -1 -6 0
8 5 -4 0
-3 2 -7 0
6 4 -1 0
-5 10 -3 0
-6 -11 -2 0
-1 3 9 0
-8 -5 -6 0
-2 6 7 0
-1 -12 5 0
-4 3 -11 0
4 7 -6 0
-5 10 -4 0
-10 5 6 0
-9 6 -7 0
3 9 -10 0
6 10 2 0
-9 5 12 0
2 -3 5 0
